t=5; %number of attributes
k=5; %maximum size of support set
n=4; %number of positive instances
m=5; %number of positive instances
c=3; %number of atMostOne Constraints

omegap = [ | 0, 1, 1, 0, 1|
             1, 1, 0, 0, 1|
             0, 0, 0, 0, 0|
             0, 1, 1, 1, 0|
         ];

omegan = [ | 1, 0, 1, 0, 1|
             1, 0, 0, 1, 0|
             0, 0, 0, 0, 1|
             1, 1, 0, 1, 0|
             0, 1, 1, 0, 0|
         ];



atMostOne = [ {3, 5, 4},
              {5, 3, 2},
              {1, 4, 3}];